; PUSH 0x02 PUSH 0x05 DUP2 LT ISZERO ISZERO => PUSH 0x02 PUSH 0x01
(set-option :produce-proofs true)
; 
(set-info :status unknown)
(declare-fun storage_t (Int (_ BitVec 256)) (_ BitVec 256))
(declare-fun storage_s (Int (_ BitVec 256)) (_ BitVec 256))
(declare-fun exc_halt_t (Int) Bool)
(declare-fun exc_halt_s (Int) Bool)
(declare-fun sc_t (Int) (_ BitVec 6))
(declare-fun stack_t (Int (_ BitVec 6)) (_ BitVec 256))
(declare-fun stack_s (Int (_ BitVec 6)) (_ BitVec 256))
(declare-fun sc_s (Int) (_ BitVec 6))
(declare-fun used_gas_t (Int) Int)
(declare-fun used_gas_s (Int) Int)
(assert
 (let (($x11787 (forall ((w (_ BitVec 256)) )(let ((?x11431 (storage_t 2 w)))
 (let ((?x7144 (storage_s 6 w)))
 (= ?x7144 ?x11431))))
 ))
 (let (($x7905 (exc_halt_t 2)))
 (let (($x7121 (exc_halt_s 6)))
 (let (($x136 (= $x7121 $x7905)))
 (let (($x5134 (forall ((n (_ BitVec 6)) )(let ((?x11248 (sc_t 2)))
 (let (($x9965 (bvsle ?x11248 n)))
 (let ((?x10197 (stack_t 2 n)))
 (let ((?x10851 (stack_s 6 n)))
 (let (($x3060 (= ?x10851 ?x10197)))
 (or $x3060 $x9965)))))))
 ))
 (let ((?x11248 (sc_t 2)))
 (let ((?x9114 (sc_s 6)))
 (let (($x3829 (= ?x9114 ?x11248)))
 (let ((?x11299 (used_gas_t 0)))
 (let ((?x11774 (used_gas_s 0)))
 (let (($x8552 (= ?x11774 ?x11299)))
 (let (($x11014 (forall ((w (_ BitVec 256)) )(let ((?x4303 (storage_t 0 w)))
 (let ((?x1197 (storage_s 0 w)))
 (= ?x1197 ?x4303))))
 ))
 (let (($x56 (exc_halt_t 0)))
 (let (($x57 (exc_halt_s 0)))
 (let (($x58 (= $x57 $x56)))
 (let (($x4958 (forall ((n (_ BitVec 6)) )(let ((?x5653 (stack_t 0 n)))
 (let ((?x1687 (stack_s 0 n)))
 (let (($x11333 (= ?x1687 ?x5653)))
 (let ((?x63 (sc_t 0)))
 (let (($x2738 (bvsle ?x63 n)))
 (or $x2738 $x11333)))))))
 ))
 (let ((?x63 (sc_t 0)))
 (let ((?x72 (sc_s 0)))
 (let (($x73 (= ?x72 ?x63)))
 (let (($x529 (not (= ((_ extract 6 6) (bvadd (_ bv1 7) (concat (_ bv0 1) (sc_t 1)))) (_ bv0 1)))))
 (let (($x4852 (exc_halt_t 1)))
 (let (($x872 (= $x7905 (or $x4852 $x529))))
 (let (($x11659 (forall ((w (_ BitVec 256)) )(let ((?x7512 (storage_t 1 w)))
 (let ((?x11431 (storage_t 2 w)))
 (= ?x11431 ?x7512))))
 ))
 (let (($x7254 (forall ((n (_ BitVec 6)) )(let ((?x9666 (sc_t 1)))
 (let (($x37 (bvsle ?x9666 n)))
 (or $x37 (= (stack_t 2 n) (stack_t 1 n))))))
 ))
 (let (($x3655 (= ?x11248 (bvadd (_ bv1 6) (sc_t 1)))))
 (let (($x4892 (= (used_gas_t 2) (+ 3 (used_gas_t 1)))))
 (let (($x9935 (= (stack_t 2 (sc_t 1)) (_ bv1 256))))
 (let (($x489 (= $x4852 (or $x56 (not (= ((_ extract 6 6) (bvadd (_ bv1 7) (concat (_ bv0 1) ?x63))) (_ bv0 1)))))))
 (let (($x10292 (forall ((w (_ BitVec 256)) )(let ((?x4303 (storage_t 0 w)))
 (let ((?x7512 (storage_t 1 w)))
 (= ?x7512 ?x4303))))
 ))
 (let (($x8920 (forall ((n (_ BitVec 6)) )(let ((?x63 (sc_t 0)))
 (let (($x2738 (bvsle ?x63 n)))
 (or (= (stack_t 1 n) (stack_t 0 n)) $x2738))))
 ))
 (let ((?x9666 (sc_t 1)))
 (let (($x3631 (= ?x9666 (bvadd (_ bv1 6) ?x63))))
 (let ((?x6534 (used_gas_t 1)))
 (let (($x7302 (= ?x6534 (+ 3 ?x11299))))
 (let (($x2416 (= (stack_t 1 ?x63) (_ bv2 256))))
 (let (($x6720 (= $x7121 (or (exc_halt_s 5) (not (bvsle (_ bv0 6) (bvadd (_ bv63 6) (sc_s 5))))))))
 (let (($x2337 (forall ((w (_ BitVec 256)) )(let ((?x728 (storage_s 5 w)))
 (let ((?x7144 (storage_s 6 w)))
 (= ?x7144 ?x728))))
 ))
 (let (($x11551 (forall ((n (_ BitVec 6)) )(let ((?x4319 (sc_s 5)))
 (let ((?x6847 (bvadd (_ bv63 6) ?x4319)))
 (let (($x9418 (bvsle ?x6847 n)))
 (or (= (stack_s 6 n) (stack_s 5 n)) $x9418)))))
 ))
 (let ((?x4319 (sc_s 5)))
 (let (($x8180 (= ?x9114 ?x4319)))
 (let (($x9203 (= (stack_s 6 (bvadd (_ bv63 6) ?x9114)) (ite (= (stack_s 5 (bvadd (_ bv63 6) ?x4319)) (_ bv0 256)) (_ bv1 256) (_ bv0 256)))))
 (let (($x1862 (exc_halt_s 5)))
 (let (($x8314 (= $x1862 (or (exc_halt_s 4) (not (bvsle (_ bv0 6) (bvadd (_ bv63 6) (sc_s 4))))))))
 (let (($x11915 (forall ((w (_ BitVec 256)) )(let ((?x4769 (storage_s 4 w)))
 (let ((?x728 (storage_s 5 w)))
 (= ?x728 ?x4769))))
 ))
 (let (($x3137 (forall ((n (_ BitVec 6)) )(or (bvsle (bvadd (_ bv63 6) (sc_s 4)) n) (= (stack_s 5 n) (stack_s 4 n))))
 ))
 (let ((?x9433 (sc_s 4)))
 (let (($x11305 (= ?x4319 ?x9433)))
 (let ((?x10903 (used_gas_s 5)))
 (let (($x11855 (= ?x10903 (+ 3 (used_gas_s 4)))))
 (let ((?x6847 (bvadd (_ bv63 6) ?x4319)))
 (let ((?x2626 (stack_s 5 ?x6847)))
 (let (($x6410 (= ?x2626 (ite (= (stack_s 4 (bvadd (_ bv63 6) ?x9433)) (_ bv0 256)) (_ bv1 256) (_ bv0 256)))))
 (let (($x9175 (exc_halt_s 4)))
 (let (($x10301 (= $x9175 (or (exc_halt_s 3) (not (bvsle (_ bv0 6) (bvadd (_ bv62 6) (sc_s 3))))))))
 (let (($x11557 (forall ((w (_ BitVec 256)) )(let ((?x7259 (storage_s 3 w)))
 (let ((?x4769 (storage_s 4 w)))
 (= ?x4769 ?x7259))))
 ))
 (let (($x5979 (forall ((n (_ BitVec 6)) )(let ((?x3851 (sc_s 3)))
 (let ((?x3651 (bvadd (_ bv62 6) ?x3851)))
 (let (($x3189 (bvsle ?x3651 n)))
 (or $x3189 (= (stack_s 4 n) (stack_s 3 n)))))))
 ))
 (let ((?x3851 (sc_s 3)))
 (let ((?x3690 (bvadd (_ bv63 6) ?x3851)))
 (let (($x8969 (= ?x9433 ?x3690)))
 (let ((?x1211 (used_gas_s 4)))
 (let (($x2574 (= ?x1211 (+ 3 (used_gas_s 3)))))
 (let ((?x4473 (ite (bvule (stack_s 3 (bvadd (_ bv62 6) ?x3851)) (stack_s 3 ?x3690)) (_ bv0 256) (_ bv1 256))))
 (let ((?x11699 (bvadd (_ bv63 6) ?x9433)))
 (let ((?x8668 (stack_s 4 ?x11699)))
 (let (($x10052 (exc_halt_s 2)))
 (let (($x8580 (not (= ((_ extract 6 6) (bvadd (_ bv1 7) (concat (_ bv0 1) (sc_s 2)))) (_ bv0 1)))))
 (let (($x8103 (exc_halt_s 3)))
 (let (($x11866 (= $x8103 (or (not (bvsle (_ bv0 6) (bvadd (_ bv62 6) (sc_s 2)))) $x8580 $x10052))))
 (let (($x4566 (forall ((w (_ BitVec 256)) )(let ((?x6522 (storage_s 2 w)))
 (let ((?x7259 (storage_s 3 w)))
 (= ?x7259 ?x6522))))
 ))
 (let (($x10177 (forall ((n (_ BitVec 6)) )(let ((?x2272 (sc_s 2)))
 (let ((?x5515 (bvadd (_ bv62 6) ?x2272)))
 (let (($x190 (bvsle ?x5515 n)))
 (or $x190 (= (stack_s 3 n) (stack_s 2 n)))))))
 ))
 (let (($x11281 (= ?x3851 (bvadd (_ bv1 6) (sc_s 2)))))
 (let ((?x9375 (used_gas_s 3)))
 (let (($x10296 (= ?x9375 (+ 3 (used_gas_s 2)))))
 (let (($x8200 (= (stack_s 3 (bvadd (_ bv63 6) (sc_s 2))) (stack_s 2 (bvadd (_ bv63 6) (sc_s 2))))))
 (let ((?x2272 (sc_s 2)))
 (let ((?x5515 (bvadd (_ bv62 6) ?x2272)))
 (let ((?x6804 (stack_s 2 ?x5515)))
 (let (($x1878 (= (stack_s 3 ?x5515) ?x6804)))
 (let ((?x11512 (stack_s 3 ?x3690)))
 (let (($x2159 (= ?x11512 ?x6804)))
 (let (($x672 (not (= ((_ extract 6 6) (bvadd (_ bv1 7) (concat (_ bv0 1) (sc_s 1)))) (_ bv0 1)))))
 (let (($x8780 (exc_halt_s 1)))
 (let (($x4433 (= $x10052 (or $x8780 $x672))))
 (let (($x11537 (forall ((w (_ BitVec 256)) )(let ((?x7593 (storage_s 1 w)))
 (let ((?x6522 (storage_s 2 w)))
 (= ?x6522 ?x7593))))
 ))
 (let (($x11031 (forall ((n (_ BitVec 6)) )(let ((?x154 (sc_s 1)))
 (let (($x9053 (bvsle ?x154 n)))
 (or (= (stack_s 2 n) (stack_s 1 n)) $x9053))))
 ))
 (let (($x7044 (= ?x2272 (bvadd (_ bv1 6) (sc_s 1)))))
 (let ((?x1998 (used_gas_s 2)))
 (let (($x2342 (= ?x1998 (+ 3 (used_gas_s 1)))))
 (let (($x10729 (= $x8780 (or $x57 (not (= ((_ extract 6 6) (bvadd (_ bv1 7) (concat (_ bv0 1) ?x72))) (_ bv0 1)))))))
 (let (($x483 (forall ((w (_ BitVec 256)) )(let ((?x1197 (storage_s 0 w)))
 (let ((?x7593 (storage_s 1 w)))
 (= ?x7593 ?x1197))))
 ))
 (let (($x5370 (forall ((n (_ BitVec 6)) )(let ((?x72 (sc_s 0)))
 (let (($x8299 (bvsle ?x72 n)))
 (or (= (stack_s 1 n) (stack_s 0 n)) $x8299))))
 ))
 (let ((?x154 (sc_s 1)))
 (let (($x4778 (= ?x154 (bvadd (_ bv1 6) ?x72))))
 (let ((?x1090 (used_gas_s 1)))
 (let (($x8394 (= ?x1090 (+ 3 ?x11774))))
 (let (($x9057 (= (stack_s 1 ?x72) (_ bv2 256))))
 (let (($x7779 (forall ((w (_ BitVec 256)) )(let ((?x1197 (storage_s 0 w)))
 (= ?x1197 (_ bv0 256))))
 ))
 (let (($x10966 (= ?x11774 0)))
 (let (($x2276 (not $x57)))
 (let (($x4825 (= ?x72 (_ bv0 6))))
 (and $x4825 $x2276 $x10966 $x7779 $x9057 $x8394 $x4778 $x5370 $x483 $x10729 (= (stack_s 2 ?x154) (_ bv5 256)) $x2342 $x7044 $x11031 $x11537 $x4433 $x2159 $x1878 $x8200 $x10296 $x11281 $x10177 $x4566 $x11866 (= ?x8668 ?x4473) $x2574 $x8969 $x5979 $x11557 $x10301 $x6410 $x11855 $x11305 $x3137 $x11915 $x8314 $x9203 (= (used_gas_s 6) (+ 3 ?x10903)) $x8180 $x11551 $x2337 $x6720 $x2416 $x7302 $x3631 $x8920 $x10292 $x489 $x9935 $x4892 $x3655 $x7254 $x11659 $x872 $x73 $x4958 $x58 $x11014 $x8552 (not (and $x3829 $x5134 $x136 $x11787))))))))))))))))))))))))))))))))))))))))))))))))))))))))))))))))))))))))))))))))))))))))))))))))))))))))
(check-sat)
(get-proof)
